111250
111250
111250
110465
108149
108149
107299
103939
103939
103939
103939
103939
103334
103334
103186
101667
101063
101063
101063
101063
99870.1
99870.1
99299.5
96645.9
96450.3
96450.3
94220.6
94220.6
94220.6
94220.6
94220.6
94220.6
93710.7
93710.7
93710.7
93710.7
91676
91676
91171.1
91171.1
91171.1
91171.1
90480.8
90480.8
90480.8
90480.8
90052.1
90052.1
90052.1
90052.1
90052.1
90052.1
90052.1
90052.1
89796.9
89796.9
89796.9
89796.9
89796.9
89796.9
89796.9
89796.9
89796.9
89796.9
89721.8
89721.8
89721.8
89721.8
89721.8
89721.8
88907.3
88907.3
88907.3
88907.3
88907.3
88907.3
88907.3
88907.3
88907.3
88349.8
88349.8
88349.8
88349.8
87794.1
87794.1
87794.1
87399.4
87399.4
87103.8
87103.8
87103.8
87103.8
87103.8
86567.2
86567.2
86567.2
86567.2
86567.2
86567.2
86567.2
